140
100
39
32
23
5
56
67
21
39
7
13
34
44
36
11
56
27
44
34
48
24
12
31
64
44
13
47
33
22
10
27
21
50
48
1
45
65
26
2
14
45
25
20
19
28
47
38
36
35
29
14
23
18
27
59
68
7
42
27
32
10
16
26
13
32
29
5
32
42
6
21
18
75
32
25
73
40
30
16
69
7
32
26
2
41
60
18
37
23
2
35
66
27
56
64
33
45
9
28
14
18
40
75
23
74
41
2
5
2
71
11
51
7
4
44
26
50
62
55
27
10
5
35
57
50
46
51
15
33
26
29
8
4
64
24
42
31
53
36
55
29
